% ----DATA VARIABLES----

t=14;%number of attributes
k=10;%max length of the support set
n=25;%number of positive instances
m=25;%number of negative instances
c=4;%number of atMostOne Constraints

% ----OMEGAS----

omegap= [| 0, 1, 1, 0, 0, 1, 1, 1, 0, 1, 1, 0, 0, 0|
 0, 0, 0, 1, 0, 0, 0, 1, 0, 0, 0, 0, 1, 1|
 1, 1, 0, 0, 0, 0, 0, 0, 1, 0, 1, 1, 0, 0|
 0, 1, 1, 0, 1, 1, 1, 0, 1, 1, 0, 0, 1, 1|
 1, 1, 1, 0, 0, 0, 1, 1, 0, 0, 1, 1, 1, 0|
 0, 0, 0, 1, 1, 1, 1, 1, 0, 1, 1, 0, 1, 1|
 0, 0, 1, 0, 0, 1, 1, 0, 1, 0, 0, 0, 0, 0|
 0, 0, 0, 0, 1, 0, 1, 1, 0, 0, 0, 0, 1, 1|
 0, 0, 1, 1, 1, 0, 1, 1, 0, 1, 0, 1, 1, 1|
 0, 0, 0, 0, 0, 1, 0, 1, 1, 0, 1, 0, 0, 0|
 1, 1, 1, 0, 0, 1, 1, 1, 0, 0, 0, 1, 1, 1|
 0, 1, 1, 1, 1, 1, 0, 0, 1, 0, 1, 1, 1, 0|
 1, 1, 1, 0, 0, 1, 0, 0, 0, 1, 1, 0, 1, 0|
 1, 0, 0, 0, 0, 1, 0, 0, 1, 1, 0, 1, 0, 1|
 1, 1, 0, 1, 1, 1, 0, 1, 0, 1, 0, 0, 1, 1|
 1, 0, 1, 0, 1, 0, 0, 0, 1, 0, 1, 0, 0, 0|
 1, 1, 1, 1, 1, 1, 0, 0, 0, 0, 0, 0, 0, 1|
 1, 0, 0, 0, 1, 1, 1, 0, 0, 1, 0, 0, 1, 1|
 0, 0, 1, 0, 1, 0, 1, 1, 0, 0, 1, 1, 0, 0|
 1, 0, 0, 0, 1, 1, 1, 0, 0, 1, 0, 1, 0, 1|
 1, 0, 0, 0, 0, 1, 0, 0, 0, 0, 1, 0, 0, 1|
 1, 1, 0, 0, 1, 1, 1, 1, 1, 0, 1, 0, 1, 1|
 0, 0, 0, 1, 1, 0, 1, 1, 0, 0, 1, 1, 1, 1|
 0, 0, 1, 1, 1, 0, 1, 1, 0, 1, 1, 1, 1, 1|
 0, 1, 1, 1, 0, 0, 1, 0, 0, 1, 1, 1, 1, 0|];

omegan= [| 0, 1, 0, 0, 0, 0, 1, 1, 1, 0, 0, 0, 1, 0|
 1, 0, 1, 0, 0, 1, 1, 0, 1, 1, 1, 0, 1, 1|
 1, 1, 1, 0, 1, 0, 0, 0, 1, 0, 0, 1, 1, 0|
 1, 0, 0, 1, 0, 1, 0, 0, 1, 1, 0, 0, 0, 1|
 0, 0, 0, 1, 1, 0, 1, 1, 1, 1, 1, 0, 0, 1|
 1, 0, 0, 1, 1, 0, 0, 1, 0, 0, 0, 0, 1, 1|
 0, 0, 0, 0, 0, 1, 0, 0, 1, 1, 0, 1, 1, 0|
 0, 0, 1, 0, 1, 0, 0, 0, 0, 0, 0, 1, 1, 1|
 1, 0, 0, 0, 0, 0, 1, 1, 1, 0, 0, 0, 0, 0|
 0, 1, 0, 1, 1, 0, 0, 0, 1, 0, 1, 0, 1, 0|
 1, 0, 0, 0, 1, 0, 0, 0, 0, 0, 0, 0, 1, 1|
 0, 1, 1, 1, 0, 1, 0, 1, 0, 1, 0, 0, 1, 1|
 0, 1, 1, 1, 0, 0, 0, 0, 0, 1, 0, 0, 1, 1|
 1, 0, 1, 1, 0, 0, 0, 1, 1, 0, 1, 0, 0, 1|
 0, 0, 1, 1, 0, 0, 1, 1, 1, 0, 0, 0, 0, 1|
 0, 1, 1, 0, 1, 0, 0, 1, 1, 0, 1, 1, 0, 0|
 1, 0, 1, 0, 0, 1, 0, 0, 0, 1, 1, 0, 1, 1|
 1, 0, 1, 0, 1, 0, 1, 0, 1, 0, 1, 1, 1, 1|
 0, 0, 0, 1, 0, 0, 0, 0, 1, 0, 1, 0, 0, 1|
 1, 0, 0, 1, 1, 1, 0, 1, 1, 0, 0, 0, 0, 0|
 0, 0, 1, 0, 1, 1, 1, 0, 1, 0, 1, 1, 1, 0|
 0, 1, 0, 0, 1, 0, 1, 0, 1, 1, 0, 0, 0, 1|
 0, 1, 1, 1, 0, 1, 1, 1, 0, 0, 0, 0, 0, 1|
 0, 0, 1, 0, 1, 1, 1, 1, 0, 1, 0, 0, 0, 0|
 1, 1, 0, 0, 0, 0, 1, 1, 0, 1, 0, 1, 0, 0|];

% ----CONSTRAINS----

atMostOne=[{4, 11, 10, 6, 3, 13}, {8, 4}, {5}, {3, 12}];